(set-option :produce-models true)
(set-logic QF_UF)
(declare-fun p21() Bool)
(declare-fun p57() Bool)
(declare-fun p67() Bool)
(declare-fun p107() Bool)
(declare-fun p51() Bool)
(declare-fun p13() Bool)
(declare-fun p68() Bool)
(declare-fun p19() Bool)
(declare-fun p33() Bool)
(declare-fun p74() Bool)
(declare-fun p71() Bool)
(declare-fun p54() Bool)
(declare-fun p30() Bool)
(declare-fun p96() Bool)
(declare-fun p106() Bool)
(declare-fun p56() Bool)
(declare-fun p108() Bool)
(declare-fun p75() Bool)
(declare-fun p35() Bool)
(declare-fun p15() Bool)
(declare-fun p50() Bool)
(declare-fun p119() Bool)
(declare-fun p32() Bool)
(declare-fun p3() Bool)
(declare-fun p66() Bool)
(declare-fun p114() Bool)
(declare-fun p49() Bool)
(declare-fun p43() Bool)
(declare-fun p90() Bool)
(declare-fun p70() Bool)
(declare-fun p34() Bool)
(declare-fun p84() Bool)
(declare-fun p22() Bool)
(declare-fun p118() Bool)
(declare-fun p65() Bool)
(declare-fun p11() Bool)
(declare-fun p41() Bool)
(declare-fun p6() Bool)
(declare-fun p72() Bool)
(declare-fun p45() Bool)
(declare-fun p39() Bool)
(declare-fun p18() Bool)
(declare-fun p47() Bool)
(declare-fun p8() Bool)
(declare-fun p53() Bool)
(declare-fun p102() Bool)
(declare-fun p1() Bool)
(declare-fun p46() Bool)
(declare-fun p28() Bool)
(declare-fun p76() Bool)
(declare-fun p10() Bool)
(declare-fun p88() Bool)
(declare-fun p29() Bool)
(declare-fun p60() Bool)
(declare-fun p63() Bool)
(declare-fun p73() Bool)
(declare-fun p5() Bool)
(declare-fun p48() Bool)
(declare-fun p89() Bool)
(declare-fun p109() Bool)
(declare-fun p55() Bool)
(declare-fun p23() Bool)
(declare-fun p2() Bool)
(declare-fun p69() Bool)
(declare-fun p105() Bool)
(declare-fun p100() Bool)
(declare-fun p61() Bool)
(declare-fun p116() Bool)
(declare-fun p26() Bool)
(declare-fun p17() Bool)
(declare-fun p94() Bool)
(declare-fun p86() Bool)
(declare-fun p31() Bool)
(declare-fun p7() Bool)
(declare-fun p101() Bool)
(declare-fun p16() Bool)
(declare-fun p37() Bool)
(declare-fun p9() Bool)
(declare-fun p78() Bool)
(declare-fun p42() Bool)
(declare-fun p97() Bool)
(declare-fun p58() Bool)
(declare-fun p36() Bool)
(declare-fun p82() Bool)
(declare-fun p59() Bool)
(declare-fun p111() Bool)
(declare-fun p77() Bool)
(declare-fun p113() Bool)
(declare-fun p87() Bool)
(declare-fun p64() Bool)
(declare-fun p103() Bool)
(declare-fun p117() Bool)
(declare-fun p83() Bool)
(declare-fun p38() Bool)
(declare-fun p62() Bool)
(declare-fun p112() Bool)
(declare-fun p81() Bool)
(declare-fun p110() Bool)
(declare-fun p98() Bool)
(declare-fun p4() Bool)
(declare-fun p44() Bool)
(declare-fun p85() Bool)
(declare-fun p104() Bool)
(declare-fun p99() Bool)
(declare-fun p80() Bool)
(declare-fun p24() Bool)
(declare-fun p14() Bool)
(declare-fun p52() Bool)
(declare-fun p27() Bool)
(declare-fun p40() Bool)
(declare-fun p25() Bool)
(declare-fun p79() Bool)
(declare-fun p93() Bool)
(declare-fun p0() Bool)
(declare-fun p95() Bool)
(declare-fun p12() Bool)
(declare-fun p92() Bool)
(declare-fun p20() Bool)
(declare-fun p91() Bool)
(declare-fun p115() Bool)
(assert
(and (or (not p21) p57 (not p67)) (or p107 (not p51) p13) (or p68 p19 (not p33)) (or p74 p71 p54) (or (not p30) p96 p106) (or (not p21) p56 (not p108)) (or (not p75) p33 (not p56)) (or p71 (not p67) (not p35)) (or p15 p50 p106) (or p119 (not p32) p3) (or p66 (not p114) (not p54)) (or p67 (not p49) p43) (or (not p90) (not p32) p70) (or p34 p84 (not p22)) (or (not p118) (not p90) p19) (or p65 (not p11) p54) (or (not p41) p6 p107) (or p107 p72 p3) (or (not p45) p84 (not p39)) (or p18 p66 p47) (or (not p8) (not p53) p102) (or (not p108) (not p1) p46) (or (not p65) p28 p76) (or (not p10) p53 p13) (or p49 (not p88) (not p29)) (or (not p60) (not p63) (not p11)) (or p73 p73 p5) (or (not p48) p118 p5) (or p41 p89 p15) (or (not p11) p5 p46) (or p5 p109 (not p55)) (or p68 p23 p2) (or p69 p39 p105) (or p46 p100 p61) (or p30 (not p116) (not p75)) (or (not p26) (not p17) p94) (or (not p49) (not p86) p31) (or p65 p7 (not p101)) (or p16 p53 (not p37)) (or p45 p21 p9) (or (not p78) (not p19) (not p60)) (or p42 p97 p58) (or p78 (not p65) (not p108)) (or p53 (not p36) (not p31)) (or p118 (not p82) (not p55)) (or (not p59) (not p51) (not p1)) (or p111 (not p30) p118) (or (not p34) p34 p32) (or (not p54) (not p77) p75) (or p48 p113 p87) (or (not p26) (not p47) (not p87)) (or (not p66) (not p64) p64) (or (not p56) p35 p34) (or (not p103) (not p10) (not p117)) (or p83 p19 p61) (or (not p70) (not p71) (not p30)) (or (not p35) (not p67) p38) (or p62 p39 (not p43)) (or (not p112) (not p31) p3) (or p114 p89 (not p81)) (or (not p111) p59 p116) (or p117 p68 p81) (or p21 p74 p56) (or p42 (not p57) p110) (or p26 (not p98) p54) (or (not p61) (not p4) p46) (or p17 p44 (not p35)) (or (not p114) (not p67) p85) (or (not p73) p102 p36) (or p97 (not p1) p104) (or (not p99) p98 p78) (or (not p13) p6 p35) (or p45 (not p26) (not p80)) (or p49 (not p88) p74) (or p28 p73 (not p68)) (or p46 (not p6) (not p10)) (or (not p99) (not p24) p75) (or p14 (not p58) p75) (or (not p9) p29 p8) (or p85 p55 (not p44)) (or (not p118) p30 p48) (or (not p80) (not p53) p68) (or (not p52) (not p111) (not p67)) (or p72 (not p68) p38) (or p83 (not p33) p28) (or p76 (not p27) (not p90)) (or (not p81) (not p112) (not p97)) (or (not p10) (not p101) (not p40)) (or p9 p51 (not p31)) (or p25 (not p42) p98) (or p88 p52 p64) (or (not p41) p47 (not p50)) (or p109 (not p65) p34) (or p105 (not p58) (not p18)) (or p84 p111 (not p86)) (or (not p8) p79 p74) (or p15 (not p117) (not p78)) (or (not p21) (not p117) p4) (or p119 p45 p102) (or (not p93) (not p119) p49) (or (not p51) (not p68) (not p46)) (or (not p74) (not p0) (not p71)) (or p119 p114 (not p55)) (or p45 p9 (not p21)) (or p63 p53 (not p41)) (or p40 (not p111) p46) (or (not p48) p14 p113) (or (not p114) p97 p48) (or p68 (not p95) (not p55)) (or (not p1) (not p69) (not p114)) (or (not p31) p19 (not p53)) (or p101 (not p52) (not p71)) (or (not p107) (not p6) p53) (or p31 (not p98) p43) (or p97 (not p70) (not p31)) (or (not p72) (not p103) p78) (or p15 (not p58) (not p104)) (or (not p95) (not p111) p58) (or (not p62) (not p46) p90) (or (not p12) (not p4) p16) (or (not p17) p92 (not p27)) (or p114 (not p117) (not p98)) (or (not p117) p109 (not p48)) (or p49 (not p70) p36) (or (not p13) p93 (not p78)) (or (not p98) p107 p21) (or (not p45) p0 (not p109)) (or (not p27) p59 p90) (or p56 p28 (not p76)) (or (not p50) (not p117) (not p20)) (or p93 (not p53) p47) (or (not p24) p1 (not p101)) (or p51 (not p44) p39) (or p119 p80 (not p6)) (or (not p112) p34 (not p76)) (or (not p103) p18 (not p10)) (or (not p71) p8 p91) (or (not p74) p19 p42) (or (not p104) p117 p88) (or p92 (not p82) p78) (or (not p110) (not p20) (not p85)) (or p88 (not p106) p16) (or p6 (not p20) p96) (or p112 (not p63) (not p108)) (or (not p59) p56 (not p79)) (or (not p17) p4 p42) (or p115 (not p65) p32) (or p45 p32 (not p77)) (or (not p102) p27 p26) (or p4 p75 (not p104)) (or (not p118) p58 p45) (or p22 (not p7) p89) (or (not p6) (not p75) (not p119)) (or (not p61) (not p34) (not p73)) (or p115 p68 (not p112)) (or (not p92) (not p104) p100) (or (not p116) p84 p90) (or (not p53) (not p58) p110) (or (not p52) p59 (not p56)) (or p69 p108 (not p115)) (or (not p1) (not p20) p45) (or (not p63) p70 p25) (or p47 (not p79) (not p19)) (or (not p6) p79 (not p61)) (or p84 p2 (not p21)) (or p84 (not p62) (not p115)) (or (not p83) (not p13) (not p16)) (or p41 (not p45) (not p14)) (or p12 (not p118) (not p20)) (or p84 (not p65) (not p19)) (or (not p95) p80 (not p44)) (or (not p1) p76 p118) (or p100 p25 p115) (or (not p13) p114 p58) (or p105 (not p99) p87) (or (not p9) (not p12) (not p88)) (or (not p17) (not p41) (not p82)) (or p113 p45 p28) (or p72 p117 p49) (or p68 (not p50) p61) (or p84 (not p17) (not p70)) (or (not p80) p58 p114) (or p78 p64 (not p78)) (or (not p110) p82 (not p8)) (or (not p53) (not p27) (not p119)) (or (not p53) (not p15) (not p91)) (or p30 p94 p76) (or (not p1) p58 (not p44)) (or p101 p50 (not p108)) (or (not p21) (not p67) p81) (or p109 p114 (not p5)) (or (not p115) (not p75) p89) (or (not p54) p72 p28) (or p50 p110 (not p7)) (or p24 p47 (not p109)) (or (not p44) p59 p93) (or (not p59) p105 (not p11)) (or (not p101) (not p70) p0) (or (not p83) p96 p33) (or p37 p23 (not p30)) (or (not p31) p3 (not p70)) (or p50 p99 (not p4)) (or (not p65) p117 p1) (or p12 p93 p13) (or p36 (not p91) p76) (or p70 p68 (not p20)) (or p116 (not p109) p12) (or (not p75) p37 p30) (or p88 (not p108) (not p81)) (or p13 (not p82) (not p70)) (or (not p82) p37 (not p15)) (or (not p48) p88 (not p92)) (or p103 p14 (not p89)) (or (not p46) p113 p58) (or (not p113) (not p35) (not p2)) (or p30 p49 (not p1)) (or (not p96) (not p96) (not p38)) (or (not p32) p30 (not p82)) (or p89 p96 (not p46)) (or p18 p16 p65) (or p5 p27 (not p79)) (or (not p118) p43 (not p9)) (or (not p30) (not p17) p70) (or (not p17) (not p62) (not p119)) (or (not p84) p109 (not p103)) (or (not p109) p79 p83) (or p6 (not p82) p81) (or p94 p43 p113) (or p84 p63 (not p13)) (or (not p95) p67 p19) (or (not p28) p119 (not p18)) (or p57 p43 (not p6)) (or p77 (not p84) (not p22)) (or (not p40) p111 (not p1)) (or p17 (not p110) p108) (or (not p90) p71 p47) (or (not p0) (not p38) p92) (or p14 p114 (not p98)) (or p4 p85 (not p101)) (or p36 (not p64) p91) (or (not p15) (not p53) p73) (or (not p39) (not p47) (not p2)) (or (not p54) p100 p61) (or p110 p47 p76) (or p1 (not p103) (not p118)) (or (not p115) (not p19) p85) (or (not p12) (not p96) p11) (or (not p68) p41 p63) (or p84 (not p95) p41) (or (not p104) p21 (not p52)) (or p2 (not p117) p100) (or (not p91) (not p54) p112) (or p64 (not p35) p7) (or (not p116) (not p102) (not p67)) (or p48 (not p70) (not p89)) (or p36 (not p56) p66) (or (not p38) (not p102) p111) (or p85 p55 (not p79)) (or p44 (not p106) p108) (or (not p79) p57 (not p45)) (or (not p10) (not p38) p111) (or p45 (not p50) (not p85)) (or p91 p69 p62) (or p63 p61 (not p81)) (or p11 (not p52) p31) (or p90 (not p119) p55) (or (not p101) (not p89) p16) (or (not p86) (not p23) p33) (or (not p12) (not p22) p7) (or p114 p88 p32) (or (not p20) p24 (not p84)) (or p15 (not p17) p59) (or p15 p41 p22) (or (not p75) p96 (not p46)) (or (not p0) p9 (not p31)) (or p105 p3 p67) (or (not p6) p88 p56) (or p65 (not p93) (not p119)) (or (not p26) (not p3) p69) (or (not p107) p44 (not p118)) (or p102 (not p27) (not p28)) (or p2 (not p110) (not p60)) (or (not p99) p73 p98) (or (not p89) (not p47) (not p27)) (or p106 (not p118) p88) (or p108 p47 (not p19)) (or p41 p99 p104) (or (not p86) p13 (not p37)) (or p32 (not p24) p51) (or (not p38) (not p105) p82) (or (not p29) (not p85) (not p49)) (or (not p27) p81 p37) (or (not p82) p4 (not p62)) (or (not p83) (not p70) p69) (or (not p83) (not p31) (not p90)) (or (not p13) (not p18) (not p4)) (or (not p100) (not p111) (not p30)) (or (not p51) (not p81) p64) (or p87 p81 p2) (or p21 p41 p93) (or p13 (not p46) p9) (or p29 p3 (not p33)) (or p0 (not p10) (not p78)) (or p0 p82 p17) (or p85 p44 p115) (or p71 p25 (not p45)) (or p28 p61 (not p26)) (or (not p102) p71 (not p19)) (or p115 (not p37) p53) (or (not p102) p3 p4) (or (not p16) (not p31) p102) (or (not p70) p97 p67) (or p113 p17 p18) (or p49 (not p55) p31) (or (not p97) p80 p83) (or (not p56) p8 p55) (or (not p6) (not p72) (not p23)) (or p81 (not p19) p77) (or (not p76) (not p100) (not p64)) (or (not p68) (not p50) p93) (or p14 p6 (not p5)) (or p11 (not p56) p13) (or (not p70) (not p46) p85) (or p7 (not p89) (not p53)) (or (not p48) (not p107) (not p68)) (or (not p118) p51 (not p6)) (or p25 (not p25) p83) (or (not p22) p85 (not p2)) (or p68 p82 p63) (or (not p72) p119 (not p66)) (or (not p84) p10 p45) (or (not p98) (not p32) (not p9)) (or p7 p20 (not p71)) (or (not p99) p86 p74) (or (not p85) (not p6) p7) (or p115 (not p73) p89) (or (not p94) p48 (not p101)) (or (not p53) p70 (not p100)) (or (not p70) (not p109) (not p58)) (or p24 (not p97) p26) (or (not p4) (not p33) (not p25)) (or p37 p16 p47) (or p73 p17 (not p57)) (or p107 (not p65) p10) (or p25 p76 p25) (or (not p75) p58 (not p71)) (or (not p49) (not p38) (not p43)) (or p51 p117 p57) (or (not p104) (not p36) (not p86)) (or (not p103) (not p109) p116) (or p86 p110 (not p93)) (or (not p75) p82 (not p93)) (or p12 p68 (not p98)) (or p1 p50 (not p46)) (or p44 p65 p75) (or p95 p115 p65) (or (not p79) (not p72) (not p39)) (or (not p9) (not p79) (not p75)) (or (not p40) (not p110) p107) (or p6 (not p42) p64) (or (not p63) p56 p69) (or (not p93) p111 p33) (or p16 (not p65) (not p77)) (or (not p42) p66 (not p79)) (or p86 p75 p83) (or (not p88) (not p78) (not p39)) (or p31 (not p26) (not p91)) (or p51 (not p97) (not p96)) (or (not p101) (not p35) (not p104)) (or p91 (not p60) p14) (or p106 p78 (not p105)) (or (not p4) p11 (not p90)) (or p45 (not p34) p46) (or (not p35) p88 p69) (or p105 (not p117) p18) (or (not p5) p10 (not p94)) (or p42 (not p89) p74) (or (not p2) (not p61) (not p50)) (or p85 (not p80) p15) (or (not p95) (not p26) (not p107)) (or p86 (not p8) (not p91)) (or p106 (not p42) p85) (or (not p58) (not p109) p19) (or p37 (not p57) p114) (or (not p102) p31 (not p117)) (or p53 p90 (not p79)) (or p65 (not p114) p7) (or (not p14) p92 (not p61)) (or (not p116) (not p48) p42) (or (not p96) (not p83) p1) (or p53 (not p115) (not p15)) (or p40 p77 (not p26)) (or (not p57) p62 (not p77)) (or (not p62) p116 (not p103)) (or p119 (not p56) (not p87)) (or (not p112) (not p73) (not p13)) (or p13 (not p30) p99) (or p33 (not p63) (not p59)) (or (not p112) p71 (not p86)) (or p102 (not p86) (not p26)) (or (not p61) (not p73) (not p7)) (or p3 p45 p103) (or (not p75) p106 (not p101)) (or (not p53) p66 p33) (or p33 (not p3) p49) (or p19 (not p8) (not p82)) (or p5 p86 (not p100)) (or p0 (not p47) (not p3)) (or (not p64) (not p115) p36) (or (not p115) p99 (not p36)) (or p98 (not p104) p58) (or p31 p34 p27) (or (not p66) (not p30) p57) (or (not p7) (not p45) p60) (or p84 p37 (not p14)) (or p39 (not p52) p7) (or p0 (not p42) p27) (or (not p72) p36 (not p111)) (or (not p106) (not p117) (not p86)) (or p1 (not p88) (not p77)) (or p106 p53 (not p25)) (or p47 (not p6) p76) (or p107 (not p52) (not p11)) (or p34 p35 p50) (or (not p54) p95 p19) (or p118 p41 p106) (or (not p117) p93 (not p7)) (or (not p105) p66 p77) (or (not p89) (not p90) p98) (or p72 p116 (not p100)) (or p79 p12 (not p44)) (or (not p15) p21 p66) (or (not p116) p28 p39) (or (not p25) (not p102) p67) (or p39 (not p119) p114) (or (not p40) (not p66) p90) (or p117 (not p103) p39) (or p113 (not p44) (not p90)) (or (not p88) (not p25) p76) (or p56 p116 p118) (or (not p32) p62 (not p81)) (or (not p74) (not p15) p23) (or p12 p4 (not p80)) (or p111 p115 p43) (or (not p88) p20 p44) (or (not p33) p115 p37) (or p105 p49 (not p74)) (or p14 (not p21) p25) (or p63 (not p10) p88) (or (not p49) (not p100) p79) (or p99 (not p6) p51) (or (not p11) p43 (not p45)) (or p15 (not p36) (not p112)) (or (not p67) (not p81) p39) (or p102 (not p28) (not p11)) (or p39 p103 p31) (or p99 p88 (not p114)) (or (not p2) (not p68) p110) (or (not p22) p99 (not p23)) (or (not p49) (not p105) (not p37)) (or (not p85) p44 (not p20)) (or p100 (not p9) p52) (or p85 p83 p9) (or p42 p49 (not p61)) (or p102 (not p59) (not p100)) (or (not p11) (not p115) p111) (or (not p88) p24 p75) (or p73 (not p30) p112) (or p85 p27 p3) (or p81 (not p119) p88) (or p7 p114 (not p31)) (or (not p16) (not p118) (not p75)) (or p28 p63 (not p109)) (or p27 p103 (not p49)) (or (not p111) p71 (not p102)) (or p5 (not p63) (not p105)) (or p94 (not p108) (not p64)) (or p116 (not p31) (not p76)) (or p36 (not p22) p106) (or (not p44) p98 p4) (or (not p62) (not p25) (not p96)) (or (not p91) (not p69) (not p5)) (or (not p24) (not p114) p59) (or p65 (not p64) p26) (or (not p5) (not p32) (not p52)) (or (not p55) (not p59) (not p104)) (or (not p51) (not p56) (not p50)) (or p51 (not p29) p75) (or p26 (not p28) p79) (or (not p46) p104 (not p37)) (or (not p6) p38 (not p85)) (or (not p59) (not p73) (not p7)) (or p119 (not p94) (not p86)) (or p102 (not p19) p64) (or (not p24) p33 p8) (or (not p35) p70 p54) (or p77 (not p79) (not p73)) (or (not p107) (not p113) (not p102)) (or p20 p1 p28) (or (not p19) (not p52) p105) (or (not p100) p44 (not p89)) (or p16 (not p61) (not p2)) (or p69 p12 (not p63)) (or p110 p16 p37) (or (not p74) (not p49) p109) (or p17 (not p14) (not p45)) (or (not p14) (not p45) (not p55)) (or p114 (not p51) (not p64)) (or p62 p59 (not p34)) (or (not p109) p110 p4) (or (not p50) (not p48) (not p20)) (or p111 (not p71) p67) (or p17 p102 p110) (or (not p89) p109 p52) (or (not p61) (not p76) (not p113)) (or (not p6) (not p68) (not p22)) (or (not p48) (not p23) (not p7)) (or (not p55) (not p86) p41) (or (not p93) (not p75) p70) (or p18 p105 (not p90)) (or p105 (not p15) p118) (or p46 (not p32) p45) (or p49 p114 (not p93)) (or p19 (not p71) (not p17)) (or (not p0) (not p85) p98) (or (not p68) (not p30) p4) (or p36 p105 (not p15)) (or p38 p24 p90) (or (not p23) (not p6) p115) (or (not p118) p26 (not p52)) (or (not p109) p95 (not p18)) (or p114 (not p78) p104) (or p79 (not p84) p5) (or p17 p91 (not p10)) (or (not p22) (not p68) (not p57)) (or p13 (not p102) p49) (or (not p77) p0 (not p53)) (or p9 p47 (not p119)) (or p31 p34 p48) (or p29 p10 (not p115)) (or p28 p109 p108) (or (not p7) (not p59) (not p90)) (or (not p86) p98 p106) (or p89 p6 p42) (or (not p36) (not p107) p39) (or p32 p47 (not p56)) (or p54 (not p64) (not p49)) (or (not p103) p3 (not p118)) (or p45 p76 (not p71)) (or (not p0) (not p30) (not p71)) (or (not p17) p115 p66) (or (not p64) (not p112) (not p97)) (or p19 p62 p90) (or (not p86) (not p2) (not p25)) (or p50 p75 p74) (or (not p22) (not p111) (not p62)) (or (not p7) (not p53) (not p118)) (or (not p73) p61 p107) (or (not p75) (not p0) (not p112)) (or (not p119) (not p28) (not p100)) (or (not p62) p100 (not p14)) (or (not p0) p76 p5) (or (not p0) p100 p112) (or p3 p56 p57) (or p105 p88 (not p67)) (or p96 p85 p20) (or (not p119) p29 p65) (or (not p49) (not p28) (not p58)) (or (not p33) (not p33) p41) (or (not p23) p0 p52) (or p36 p67 (not p28)) (or p47 (not p90) p56) (or (not p54) p70 (not p36)) (or (not p62) (not p99) (not p58)) (or p101 p97 (not p2)) (or (not p8) p93 (not p6)) (or (not p59) (not p4) (not p70)) (or (not p3) (not p63) (not p86)) (or (not p54) p82 (not p32)) (or (not p63) (not p113) (not p70)) (or (not p80) p18 (not p79)) (or (not p85) p24 (not p30)) (or (not p26) p98 p9) (or (not p57) p77 (not p4)) (or p60 (not p116) (not p88)) (or (not p65) (not p65) p5) (or (not p15) (not p30) p104) (or (not p104) p77 (not p105)) (or p38 p74 p12) (or p105 p61 (not p107)) (or p108 p74 (not p9)) (or p19 (not p45) (not p105)) (or p40 p4 (not p69)) (or p69 p1 (not p118)) (or (not p113) (not p110) (not p35)) (or (not p82) (not p32) (not p63)) (or (not p23) (not p68) p23) (or (not p25) p22 p14) (or p3 (not p37) p11))
)
(check-sat)
(get-model)
